pure_adt/tip2015_weird_nat_add3_same.smt2
(set-logic HORN)
(declare-datatypes ((Nat_204 0)) (((zero_21 ) (succ_21 (p_56 Nat_204)))))
(declare-fun diseqNat_204 (Nat_204 Nat_204) Bool)
(declare-fun p_57 (Nat_204 Nat_204) Bool)
(declare-fun iszero_21 (Nat_204) Bool)
(declare-fun issucc_21 (Nat_204) Bool)
(assert (forall ((x_12643 Nat_204))
	(p_57 x_12643 (succ_21 x_12643))))
(assert (iszero_21 zero_21))
(assert (forall ((x_12645 Nat_204))
	(issucc_21 (succ_21 x_12645))))
(assert (forall ((x_12646 Nat_204))
	(diseqNat_204 zero_21 (succ_21 x_12646))))
(assert (forall ((x_12647 Nat_204))
	(diseqNat_204 (succ_21 x_12647) zero_21)))
(assert (forall ((x_12648 Nat_204) (x_12649 Nat_204))
	(=> (diseqNat_204 x_12648 x_12649)
	    (diseqNat_204 (succ_21 x_12648) (succ_21 x_12649)))))
(declare-fun plus_17 (Nat_204 Nat_204 Nat_204) Bool)
(assert (forall ((x_12617 Nat_204) (z_606 Nat_204) (y_555 Nat_204))
	(=> (plus_17 x_12617 z_606 y_555)
	    (plus_17 (succ_21 x_12617) (succ_21 z_606) y_555))))
(assert (forall ((x_12618 Nat_204))
	(plus_17 x_12618 zero_21 x_12618)))
(declare-fun addacc_3 (Nat_204 Nat_204 Nat_204 Nat_204) Bool)
(assert (forall ((x_12619 Nat_204) (x_12606 Nat_204) (y_556 Nat_204) (z_607 Nat_204))
	(=> (addacc_3 x_12619 x_12606 (succ_21 y_556) z_607)
	    (addacc_3 x_12619 (succ_21 x_12606) y_556 z_607))))
(assert (forall ((x_12621 Nat_204) (x_12607 Nat_204) (z_607 Nat_204))
	(=> (addacc_3 x_12621 zero_21 x_12607 (succ_21 z_607))
	    (addacc_3 x_12621 zero_21 (succ_21 x_12607) z_607))))
(assert (forall ((x_12623 Nat_204))
	(addacc_3 x_12623 zero_21 zero_21 x_12623)))
(declare-fun add_114 (Nat_204 Nat_204 Nat_204 Nat_204) Bool)
(assert (forall ((x_12624 Nat_204) (x_12625 Nat_204) (x_12609 Nat_204) (y_557 Nat_204) (z_608 Nat_204))
	(=>	(and (add_114 x_12625 x_12609 y_557 z_608)
			(plus_17 x_12624 (succ_21 zero_21) x_12625))
		(add_114 x_12624 (succ_21 x_12609) y_557 z_608))))
(assert (forall ((x_12627 Nat_204) (x_12628 Nat_204) (x_12610 Nat_204) (z_608 Nat_204))
	(=>	(and (add_114 x_12628 zero_21 x_12610 z_608)
			(plus_17 x_12627 (succ_21 zero_21) x_12628))
		(add_114 x_12627 zero_21 (succ_21 x_12610) z_608))))
(assert (forall ((x_12630 Nat_204))
	(add_114 x_12630 zero_21 zero_21 x_12630)))
(assert (forall ((x_12631 Nat_204) (x_12632 Nat_204) (x_12611 Nat_204) (y_558 Nat_204) (z_609 Nat_204))
	(=>	(and true
			(diseqNat_204 x_12631 x_12632)
			(add_114 x_12631 x_12611 y_558 z_609)
			(addacc_3 x_12632 x_12611 y_558 z_609))
		false)))
(assert (forall ((x_12633 Nat_204) (x_12634 Nat_204) (x_12635 Nat_204) (x_12636 Nat_204) (x_12612 Nat_204) (y_559 Nat_204) (z_610 Nat_204))
	(=>	(and true
			(diseqNat_204 x_12634 x_12636)
			(plus_17 x_12633 y_559 z_610)
			(plus_17 x_12634 x_12612 x_12633)
			(plus_17 x_12635 x_12612 y_559)
			(plus_17 x_12636 x_12635 z_610))
		false)))
(assert (forall ((x_12637 Nat_204) (x_12638 Nat_204) (x_12613 Nat_204) (y_560 Nat_204))
	(=>	(and true
			(diseqNat_204 x_12637 x_12638)
			(plus_17 x_12637 x_12613 y_560)
			(plus_17 x_12638 y_560 x_12613))
		false)))
(assert (forall ((x_12639 Nat_204) (x_12614 Nat_204))
	(=>	(and true
			(diseqNat_204 x_12639 x_12614)
			(plus_17 x_12639 x_12614 zero_21))
		false)))
(assert (forall ((x_12640 Nat_204) (x_12615 Nat_204))
	(=>	(and true
			(diseqNat_204 x_12640 x_12615)
			(plus_17 x_12640 zero_21 x_12615))
		false)))
(check-sat)
